1 31 2
-422 -24 -761 -294 -284 -260 -525 -893 -444 -130 -887 -280 -995 -516 -259 -708 -530 -820 -392 -450 -280 -102 -587 -89 -748 -921 -687 -743 -83 -739 0 
-481 -950 -193 -626 -777 -739 -398 -14 -623 -809 -50 -710 -35 -462 -739 -319 -461 -139 -559 -595 -811 -869 -359 -841 -333 -70 -355 -344 -822 -184 0 
904 986 810 1064 930 925 852 786 1109 911 1130 1128 1208 1076 978 927 939 908 952 936 1183 1104 763 898 972 1059 975 1251 749 1043 1 
14728 
